p tdp 133 240
1 8
1 2
2 9
2 3
3 10
3 4
4 11
4 5
5 12
5 6
6 13
6 7
7 14
8 15
8 9
9 16
9 10
10 17
10 11
11 18
11 12
12 19
12 13
13 20
13 14
14 21
15 22
15 16
16 23
16 17
17 24
17 18
18 25
18 19
19 26
19 20
20 27
20 21
21 28
22 29
22 23
23 30
23 24
24 31
24 25
25 32
25 26
26 33
26 27
27 34
27 28
28 35
29 36
29 30
30 37
30 31
31 38
31 32
32 39
32 33
33 40
33 34
34 41
34 35
35 42
36 43
36 37
37 44
37 38
38 45
38 39
39 46
39 40
40 47
40 41
41 48
41 42
42 49
43 50
43 44
44 51
44 45
45 52
45 46
46 53
46 47
47 54
47 48
48 55
48 49
49 56
50 57
50 51
51 58
51 52
52 59
52 53
53 60
53 54
54 61
54 55
55 62
55 56
56 63
57 64
57 58
58 65
58 59
59 66
59 60
60 67
60 61
61 68
61 62
62 69
62 63
63 70
64 71
64 65
65 72
65 66
66 73
66 67
67 74
67 68
68 75
68 69
69 76
69 70
70 77
71 78
71 72
72 79
72 73
73 80
73 74
74 81
74 75
75 82
75 76
76 83
76 77
77 84
78 85
78 79
79 86
79 80
80 87
80 81
81 88
81 82
82 89
82 83
83 90
83 84
84 91
85 92
85 86
86 93
86 87
87 94
87 88
88 95
88 89
89 96
89 90
90 97
90 91
91 98
92 99
92 93
93 100
93 94
94 101
94 95
95 102
95 96
96 103
96 97
97 104
97 98
98 105
99 106
99 100
100 107
100 101
101 108
101 102
102 109
102 103
103 110
103 104
104 111
104 105
105 112
106 113
106 107
107 114
107 108
108 115
108 109
109 116
109 110
110 117
110 111
111 118
111 112
112 119
113 120
113 114
114 121
114 115
115 122
115 116
116 123
116 117
117 124
117 118
118 125
118 119
119 126
120 127
120 121
121 128
121 122
122 129
122 123
123 130
123 124
124 131
124 125
125 132
125 126
126 133
127 128
128 129
129 130
130 131
131 132
132 133
